{4, 3, 5, 6, 19, 20, 8, 7, 10, 9, 11, 30, 31, 32, 33, 39, 40, 41, 36, \
35, 34, 27, 28, 29, 53, 54, 55, 57, 56, 60, 61, 63, 62, 59, 58, 64, \
66, 65, 73, 74, 51, 52, 50, 45, 44, 42, 13, 43, 49, 48, 47, 46, 16, \
15, 14, 17, 18, 309, 310, 12, 37, 38, 79, 78, 77, 76, 75, 89, 88, 83, \
87, 82, 81, 80, 86, 85, 84, 136, 135, 134, 133, 132, 131, 130, 125, \
124, 123, 122, 121, 120, 119, 118, 126, 127, 128, 129, 110, 111, 112, \
113, 114, 115, 117, 105, 104, 103, 102, 101, 100, 99, 98, 96, 95, 94, \
92, 91, 90, 72, 71, 70, 69, 68, 67, 93, 97, 138, 137, 139, 172, 173, \
176, 175, 174, 170, 169, 168, 167, 140, 141, 235, 250, 237, 236, 238, \
242, 240, 241, 247, 248, 249, 246, 244, 243, 251, 252, 245, 253, 255, \
254, 260, 267, 266, 265, 286, 289, 288, 285, 264, 303, 304, 307, 305, \
306, 298, 297, 299, 300, 301, 302, 308, 1, 312, 311, 313, 315, 314, \
316, 440, 441, 443, 396, 395, 394, 399, 398, 403, 405, 369, 404, 397, \
393, 392, 391, 442, 325, 324, 323, 322, 328, 332, 390, 336, 335, 348, \
349, 350, 351, 402, 401, 359, 356, 347, 355, 353, 354, 357, 273, 352, \
274, 272, 271, 371, 376, 372, 363, 362, 361, 263, 262, 261, 256, 257, \
258, 329, 334, 330, 331, 327, 326, 321, 320, 317, 318, 319, 284, 333, \
345, 344, 343, 341, 342, 340, 339, 338, 337, 275, 280, 283, 282, 281, \
279, 276, 278, 277, 270, 269, 268, 287, 290, 291, 294, 295, 293, 292, \
296, 364, 365, 358, 259, 380, 151, 152, 153, 389, 387, 386, 388, 381, \
379, 378, 377, 373, 374, 375, 419, 418, 370, 368, 367, 366, 360, 346, \
420, 421, 422, 424, 385, 384, 383, 382, 154, 155, 158, 157, 156, 436, \
494, 490, 491, 493, 492, 460, 459, 520, 519, 518, 517, 523, 524, 516, \
515, 514, 512, 513, 526, 525, 522, 521, 461, 458, 457, 456, 452, 453, \
454, 446, 413, 447, 417, 429, 430, 487, 488, 435, 434, 433, 431, 426, \
425, 432, 428, 427, 423, 411, 410, 407, 409, 412, 414, 415, 416, 408, \
406, 445, 400, 439, 437, 438, 448, 449, 450, 451, 462, 463, 464, 466, \
469, 470, 471, 473, 472, 531, 532, 533, 534, 535, 542, 543, 541, 540, \
544, 545, 546, 560, 561, 602, 562, 563, 547, 550, 553, 556, 557, 558, \
559, 555, 554, 552, 549, 551, 548, 539, 538, 537, 536, 530, 529, 528, \
527, 511, 510, 509, 508, 166, 165, 203, 206, 205, 204, 202, 201, 200, \
199, 198, 197, 196, 192, 186, 185, 184, 183, 182, 171, 149, 178, 179, \
180, 181, 187, 188, 190, 191, 193, 189, 194, 195, 207, 208, 220, 219, \
221, 229, 228, 227, 225, 226, 216, 223, 224, 222, 212, 213, 215, 214, \
211, 210, 209, 568, 567, 569, 570, 571, 572, 573, 574, 565, 566, 564, \
607, 605, 606, 604, 615, 617, 616, 614, 611, 612, 609, 601, 600, 598, \
597, 596, 595, 592, 593, 594, 637, 639, 638, 657, 658, 659, 636, 635, \
634, 633, 623, 622, 621, 619, 618, 482, 620, 486, 484, 483, 485, 624, \
625, 626, 627, 629, 628, 630, 631, 632, 479, 480, 481, 478, 477, 476, \
475, 468, 467, 465, 474, 603, 613, 610, 608, 599, 591, 590, 587, 585, \
584, 583, 582, 581, 580, 577, 576, 575, 578, 579, 588, 589, 586, 640, \
648, 642, 643, 644, 645, 646, 647, 656, 655, 652, 651, 650, 649, 641, \
233, 230, 231, 232, 234, 507, 506, 164, 160, 504, 505, 503, 159, 161, \
162, 163, 500, 501, 502, 499, 495, 496, 497, 498, 489, 455, 444, 146, \
239, 144, 143, 142, 145, 147, 148, 150, 177, 217, 218, 666, 108, 109, \
116, 106, 107, 26, 24, 23, 22, 21, 25, 660, 661, 663, 662, 664, 665, \
653, 654, 2, 4}
